(set-logic QF_NRA)
(set-info :source |Benchmarks generated from hycomp (https://es-static.fbk.eu/tools/hycomp/). BMC instances of non-linear hybrid automata taken from: Alessandro Cimatti, Sergio Mover, Stefano Tonetta, A quantifier-free SMT encoding of non-linear hybrid automata, FMCAD 2012 and Alessandro Cimatti, Sergio Mover, Stefano Tonetta, Quantier-free encoding of invariants for Hybrid Systems, Formal Methods in System Design. This instance solves a BMC problem of depth 1 and uses the encoding obtained with quantifier elimination using redlog encoding. Contacts: Sergio Mover (mover@fbk.eu), Stefano Tonetta (tonettas@fbk.eu), Alessandro Cimatti (cimatti@fbk.eu).|)
(set-info :smt-lib-version 2.0)
(set-info :category "industrial")
(set-info :status unsat)
;; MathSAT API call trace
;; generated on Mon Mar 19 10:48:05 2012
(declare-fun b.counter.3__AT1 () Bool)
(declare-fun b.y__AT0 () Real)
(declare-fun b.event_is_timed__AT0 () Bool)
(declare-fun b.counter.0__AT0 () Bool)
(declare-fun b.counter.1__AT0 () Bool)
(declare-fun b.time__AT1 () Real)
(declare-fun b.counter.3__AT0 () Bool)
(declare-fun b.delta__AT1 () Real)
(declare-fun b.EVENT.0__AT1 () Bool)
(declare-fun b.delta__AT0 () Real)
(declare-fun b.EVENT.1__AT1 () Bool)
(declare-fun b.speed_y__AT1 () Real)
(declare-fun b.event_is_timed__AT1 () Bool)
(declare-fun speed_loss__AT0 () Real)
(declare-fun b.counter.1__AT1 () Bool)
(declare-fun b.counter.2__AT1 () Bool)
(declare-fun b.counter.2__AT0 () Bool)
(declare-fun b.time__AT0 () Real)
(declare-fun b.speed_y__AT0 () Real)
(declare-fun b.EVENT.1__AT0 () Bool)
(declare-fun b.y__AT1 () Real)
(declare-fun b.counter.0__AT1 () Bool)
(declare-fun b.EVENT.0__AT0 () Bool)
(assert (let ((.def_266 (* 49.0 b.delta__AT1)))
(let ((.def_267 (* b.delta__AT1 .def_266)))
(let ((.def_268 (* (- 1.0) .def_267)))
(let ((.def_264 (* 10.0 b.speed_y__AT1)))
(let ((.def_265 (* b.delta__AT1 .def_264)))
(let ((.def_269 (+ .def_265 .def_268)))
(let ((.def_270 (* 10.0 b.y__AT1)))
(let ((.def_272 (+ .def_270 .def_269)))
(let ((.def_273 (<= 0.0 .def_272)))
(let ((.def_300 (not .def_273)))
(let ((.def_284 (* (- 49.0) b.delta__AT1)))
(let ((.def_275 (* 5.0 b.speed_y__AT1)))
(let ((.def_285 (+ .def_275 .def_284)))
(let ((.def_286 (<= 0.0 .def_285)))
(let ((.def_301 (and .def_286 .def_300)))
(let ((.def_296 (<= b.speed_y__AT1 0.0 )))
(let ((.def_250 (<= 0.0 b.y__AT1)))
(let ((.def_299 (or .def_250 .def_296)))
(let ((.def_302 (or .def_299 .def_301)))
(let ((.def_295 (<= b.y__AT1 0.0 )))
(let ((.def_297 (and .def_295 .def_296)))
(let ((.def_290 (<= .def_285 0.0 )))
(let ((.def_291 (not .def_290)))
(let ((.def_288 (= .def_272 0.0 )))
(let ((.def_289 (not .def_288)))
(let ((.def_292 (or .def_289 .def_291)))
(let ((.def_287 (or .def_273 .def_286)))
(let ((.def_293 (and .def_287 .def_292)))
(let ((.def_276 (* b.speed_y__AT1 .def_275)))
(let ((.def_277 (* 98.0 b.y__AT1)))
(let ((.def_279 (+ .def_277 .def_276)))
(let ((.def_282 (<= .def_279 0.0 )))
(let ((.def_283 (not .def_282)))
(let ((.def_294 (or .def_283 .def_293)))
(let ((.def_298 (or .def_294 .def_297)))
(let ((.def_303 (and .def_298 .def_302)))
(let ((.def_280 (<= 0.0 .def_279)))
(let ((.def_281 (not .def_280)))
(let ((.def_304 (or .def_281 .def_303)))
(let ((.def_262 (<= 0.0 b.delta__AT1)))
(let ((.def_263 (not .def_262)))
(let ((.def_274 (or .def_263 .def_273)))
(let ((.def_305 (and .def_274 .def_304)))
(let ((.def_247 (not b.EVENT.0__AT1)))
(let ((.def_245 (not b.EVENT.1__AT1)))
(let ((.def_259 (and .def_245 .def_247)))
(let ((.def_260 (not .def_259)))
(let ((.def_306 (or .def_260 .def_305)))
(let ((.def_32 (not b.counter.0__AT0)))
(let ((.def_30 (not b.counter.1__AT0)))
(let ((.def_33 (and .def_30 .def_32)))
(let ((.def_255 (or .def_33 b.counter.3__AT0)))
(let ((.def_38 (not b.counter.3__AT0)))
(let ((.def_35 (not b.counter.2__AT0)))
(let ((.def_36 (and .def_33 .def_35)))
(let ((.def_254 (or .def_36 .def_38)))
(let ((.def_256 (and .def_254 .def_255)))
(let ((.def_60 (<= speed_loss__AT0 (/ 1 2))))
(let ((.def_57 (<= (/ 1 10) speed_loss__AT0)))
(let ((.def_61 (and .def_57 .def_60)))
(let ((.def_251 (and .def_61 .def_250)))
(let ((.def_248 (or .def_245 .def_247)))
(let ((.def_6 (not b.counter.0__AT1)))
(let ((.def_4 (not b.counter.1__AT1)))
(let ((.def_238 (or .def_4 .def_6)))
(let ((.def_242 (or b.counter.3__AT1 .def_238)))
(let ((.def_239 (or b.counter.2__AT1 .def_238)))
(let ((.def_9 (not b.counter.2__AT1)))
(let ((.def_237 (or .def_6 .def_9)))
(let ((.def_240 (and .def_237 .def_239)))
(let ((.def_12 (not b.counter.3__AT1)))
(let ((.def_241 (or .def_12 .def_240)))
(let ((.def_243 (and .def_241 .def_242)))
(let ((.def_249 (and .def_243 .def_248)))
(let ((.def_252 (and .def_249 .def_251)))
(let ((.def_70 (<= 0.0 b.delta__AT0)))
(let ((.def_51 (not b.EVENT.0__AT0)))
(let ((.def_49 (not b.EVENT.1__AT0)))
(let ((.def_67 (and .def_49 .def_51)))
(let ((.def_68 (not .def_67)))
(let ((.def_233 (or .def_68 .def_70)))
(let ((.def_234 (or b.EVENT.1__AT0 .def_233)))
(let ((.def_169 (= b.counter.0__AT1 b.counter.0__AT0)))
(let ((.def_167 (= b.counter.1__AT1 b.counter.1__AT0)))
(let ((.def_165 (= b.counter.2__AT1 b.counter.2__AT0)))
(let ((.def_164 (= b.counter.3__AT1 b.counter.3__AT0)))
(let ((.def_166 (and .def_164 .def_165)))
(let ((.def_168 (and .def_166 .def_167)))
(let ((.def_170 (and .def_168 .def_169)))
(let ((.def_230 (or .def_68 .def_170)))
(let ((.def_231 (or b.EVENT.1__AT0 .def_230)))
(let ((.def_222 (* (- 5.0) b.speed_y__AT1)))
(let ((.def_97 (* (- 49.0) b.delta__AT0)))
(let ((.def_223 (+ .def_97 .def_222)))
(let ((.def_86 (* 5.0 b.speed_y__AT0)))
(let ((.def_224 (+ .def_86 .def_223)))
(let ((.def_225 (= .def_224 0.0 )))
(let ((.def_211 (* b.speed_y__AT0 b.delta__AT0)))
(let ((.def_212 (* 10.0 .def_211)))
(let ((.def_209 (* b.delta__AT0 b.delta__AT0)))
(let ((.def_210 (* (- 49.0) .def_209)))
(let ((.def_213 (+ .def_210 .def_212)))
(let ((.def_215 (* (- 10.0) b.y__AT1)))
(let ((.def_218 (+ .def_215 .def_213)))
(let ((.def_80 (* 10.0 b.y__AT0)))
(let ((.def_219 (+ .def_80 .def_218)))
(let ((.def_220 (= .def_219 0.0 )))
(let ((.def_226 (and .def_220 .def_225)))
(let ((.def_227 (or .def_68 .def_226)))
(let ((.def_175 (= b.y__AT0 b.y__AT1)))
(let ((.def_163 (= b.speed_y__AT0 b.speed_y__AT1)))
(let ((.def_206 (and .def_163 .def_175)))
(let ((.def_203 (= b.delta__AT0 0.0 )))
(let ((.def_204 (and .def_67 .def_203)))
(let ((.def_205 (not .def_204)))
(let ((.def_207 (or .def_205 .def_206)))
(let ((.def_208 (or b.EVENT.1__AT0 .def_207)))
(let ((.def_228 (and .def_208 .def_227)))
(let ((.def_185 (= b.time__AT0 b.time__AT1)))
(let ((.def_197 (and .def_175 .def_185)))
(let ((.def_198 (and .def_163 .def_197)))
(let ((.def_199 (and .def_170 .def_198)))
(let ((.def_200 (or .def_49 .def_199)))
(let ((.def_188 (* (- 1.0) b.time__AT1)))
(let ((.def_191 (+ b.delta__AT0 .def_188)))
(let ((.def_192 (+ b.time__AT0 .def_191)))
(let ((.def_193 (= .def_192 0.0 )))
(let ((.def_194 (or .def_68 .def_193)))
(let ((.def_195 (or b.EVENT.1__AT0 .def_194)))
(let ((.def_186 (or .def_67 .def_185)))
(let ((.def_187 (or b.EVENT.1__AT0 .def_186)))
(let ((.def_196 (and .def_187 .def_195)))
(let ((.def_201 (and .def_196 .def_200)))
(let ((.def_181 (= .def_68 b.event_is_timed__AT1)))
(let ((.def_179 (= b.event_is_timed__AT0 .def_67)))
(let ((.def_182 (and .def_179 .def_181)))
(let ((.def_171 (and .def_163 .def_170)))
(let ((.def_122 (<= 0.0 b.speed_y__AT0)))
(let ((.def_123 (not .def_122)))
(let ((.def_121 (= b.y__AT0 0.0 )))
(let ((.def_124 (and .def_121 .def_123)))
(let ((.def_172 (or .def_124 .def_171)))
(let ((.def_140 (or .def_6 b.counter.0__AT0)))
(let ((.def_139 (or b.counter.0__AT1 .def_32)))
(let ((.def_141 (and .def_139 .def_140)))
(let ((.def_142 (and .def_4 .def_141)))
(let ((.def_143 (or b.counter.1__AT0 .def_142)))
(let ((.def_138 (or b.counter.1__AT1 .def_30)))
(let ((.def_144 (and .def_138 .def_143)))
(let ((.def_155 (and .def_9 .def_144)))
(let ((.def_156 (or b.counter.2__AT0 .def_155)))
(let ((.def_150 (and .def_4 .def_32)))
(let ((.def_151 (or b.counter.1__AT0 .def_150)))
(let ((.def_152 (and .def_138 .def_151)))
(let ((.def_153 (and b.counter.2__AT1 .def_152)))
(let ((.def_154 (or .def_35 .def_153)))
(let ((.def_157 (and .def_154 .def_156)))
(let ((.def_158 (and b.counter.3__AT1 .def_157)))
(let ((.def_159 (or b.counter.3__AT0 .def_158)))
(let ((.def_145 (and b.counter.2__AT1 .def_144)))
(let ((.def_146 (or b.counter.2__AT0 .def_145)))
(let ((.def_134 (or b.counter.1__AT1 b.counter.1__AT0)))
(let ((.def_132 (and .def_4 b.counter.0__AT1)))
(let ((.def_133 (or .def_30 .def_132)))
(let ((.def_135 (and .def_133 .def_134)))
(let ((.def_136 (and .def_9 .def_135)))
(let ((.def_137 (or .def_35 .def_136)))
(let ((.def_147 (and .def_137 .def_146)))
(let ((.def_148 (and .def_12 .def_147)))
(let ((.def_149 (or .def_38 .def_148)))
(let ((.def_160 (and .def_149 .def_159)))
(let ((.def_127 (* (- 1.0) speed_loss__AT0)))
(let ((.def_128 (+ 1.0 .def_127)))
(let ((.def_126 (* (- 1.0) b.speed_y__AT0)))
(let ((.def_129 (* .def_126 .def_128)))
(let ((.def_131 (= .def_129 b.speed_y__AT1)))
(let ((.def_161 (and .def_131 .def_160)))
(let ((.def_125 (not .def_124)))
(let ((.def_162 (or .def_125 .def_161)))
(let ((.def_173 (and .def_162 .def_172)))
(let ((.def_176 (and .def_173 .def_175)))
(let ((.def_177 (or .def_67 .def_176)))
(let ((.def_178 (or b.EVENT.1__AT0 .def_177)))
(let ((.def_183 (and .def_178 .def_182)))
(let ((.def_202 (and .def_183 .def_201)))
(let ((.def_229 (and .def_202 .def_228)))
(let ((.def_232 (and .def_229 .def_231)))
(let ((.def_235 (and .def_232 .def_234)))
(let ((.def_236 (and .def_49 .def_235)))
(let ((.def_253 (and .def_236 .def_252)))
(let ((.def_257 (and .def_253 .def_256)))
(let ((.def_75 (* 49.0 b.delta__AT0)))
(let ((.def_76 (* b.delta__AT0 .def_75)))
(let ((.def_78 (* (- 1.0) .def_76)))
(let ((.def_72 (* 10.0 b.speed_y__AT0)))
(let ((.def_73 (* b.delta__AT0 .def_72)))
(let ((.def_79 (+ .def_73 .def_78)))
(let ((.def_82 (+ .def_80 .def_79)))
(let ((.def_83 (<= 0.0 .def_82)))
(let ((.def_113 (not .def_83)))
(let ((.def_98 (+ .def_86 .def_97)))
(let ((.def_99 (<= 0.0 .def_98)))
(let ((.def_114 (and .def_99 .def_113)))
(let ((.def_109 (<= b.speed_y__AT0 0.0 )))
(let ((.def_62 (<= 0.0 b.y__AT0)))
(let ((.def_112 (or .def_62 .def_109)))
(let ((.def_115 (or .def_112 .def_114)))
(let ((.def_108 (<= b.y__AT0 0.0 )))
(let ((.def_110 (and .def_108 .def_109)))
(let ((.def_103 (<= .def_98 0.0 )))
(let ((.def_104 (not .def_103)))
(let ((.def_101 (= .def_82 0.0 )))
(let ((.def_102 (not .def_101)))
(let ((.def_105 (or .def_102 .def_104)))
(let ((.def_100 (or .def_83 .def_99)))
(let ((.def_106 (and .def_100 .def_105)))
(let ((.def_87 (* b.speed_y__AT0 .def_86)))
(let ((.def_89 (* 98.0 b.y__AT0)))
(let ((.def_91 (+ .def_89 .def_87)))
(let ((.def_94 (<= .def_91 0.0 )))
(let ((.def_95 (not .def_94)))
(let ((.def_107 (or .def_95 .def_106)))
(let ((.def_111 (or .def_107 .def_110)))
(let ((.def_116 (and .def_111 .def_115)))
(let ((.def_92 (<= 0.0 .def_91)))
(let ((.def_93 (not .def_92)))
(let ((.def_117 (or .def_93 .def_116)))
(let ((.def_71 (not .def_70)))
(let ((.def_84 (or .def_71 .def_83)))
(let ((.def_118 (and .def_84 .def_117)))
(let ((.def_119 (or .def_68 .def_118)))
(let ((.def_63 (and .def_61 .def_62)))
(let ((.def_52 (or .def_49 .def_51)))
(let ((.def_42 (or .def_30 .def_32)))
(let ((.def_46 (or b.counter.3__AT0 .def_42)))
(let ((.def_43 (or b.counter.2__AT0 .def_42)))
(let ((.def_41 (or .def_32 .def_35)))
(let ((.def_44 (and .def_41 .def_43)))
(let ((.def_45 (or .def_38 .def_44)))
(let ((.def_47 (and .def_45 .def_46)))
(let ((.def_53 (and .def_47 .def_52)))
(let ((.def_64 (and .def_53 .def_63)))
(let ((.def_39 (and .def_36 .def_38)))
(let ((.def_27 (= b.speed_y__AT0 0.0 )))
(let ((.def_24 (= b.y__AT0 10.0 )))
(let ((.def_19 (= b.time__AT0 0.0 )))
(let ((.def_21 (and .def_19 b.event_is_timed__AT0)))
(let ((.def_25 (and .def_21 .def_24)))
(let ((.def_28 (and .def_25 .def_27)))
(let ((.def_40 (and .def_28 .def_39)))
(let ((.def_65 (and .def_40 .def_64)))
(let ((.def_7 (and .def_4 .def_6)))
(let ((.def_14 (or .def_7 b.counter.3__AT1)))
(let ((.def_10 (and .def_7 .def_9)))
(let ((.def_13 (or .def_10 .def_12)))
(let ((.def_15 (and .def_13 .def_14)))
(let ((.def_16 (not .def_15)))
(let ((.def_66 (and .def_16 .def_65)))
(let ((.def_120 (and .def_66 .def_119)))
(let ((.def_258 (and .def_120 .def_257)))
(let ((.def_307 (and .def_258 .def_306)))
.def_307))))))))))))))))))))))))))))))))))))))))))))))))))))))))))))))))))))))))))))))))))))))))))))))))))))))))))))))))))))))))))))))))))))))))))))))))))))))))))))))))))))))))))))))))))))))))))))))))))))))))))))))))))))))))))))))))))))))))))))))))))))))))))))))))))))))
(check-sat)
(exit)
